File "./GRP661-1/SMT.v", line 6, characters 0-15:
Warning: Interpreting this declaration as if a global declaration prefixed by
"Local", i.e. as a global declaration which shall not be available without
qualification when imported. [local-declaration,vernacular,default]
File "./GRP661-1/SMT.v", line 7, characters 0-15:
Warning: Interpreting this declaration as if a global declaration prefixed by
"Local", i.e. as a global declaration which shall not be available without
qualification when imported. [local-declaration,vernacular,default]
File "./GRP661-1/SMT.v", line 8, characters 0-26:
Warning: Interpreting this declaration as if a global declaration prefixed by
"Local", i.e. as a global declaration which shall not be available without
qualification when imported. [local-declaration,vernacular,default]
File "./GRP661-1/SMT.v", line 9, characters 0-28:
Warning: Interpreting this declaration as if a global declaration prefixed by
"Local", i.e. as a global declaration which shall not be available without
qualification when imported. [local-declaration,vernacular,default]
File "./GRP661-1/SMT.v", line 10, characters 0-18:
Warning: Interpreting this declaration as if a global declaration prefixed by
"Local", i.e. as a global declaration which shall not be available without
qualification when imported. [local-declaration,vernacular,default]
File "./GRP661-1/SMT.v", line 11, characters 0-18:
Warning: Interpreting this declaration as if a global declaration prefixed by
"Local", i.e. as a global declaration which shall not be available without
qualification when imported. [local-declaration,vernacular,default]
File "./GRP661-1/SMT.v", line 12, characters 0-26:
Warning: Interpreting this declaration as if a global declaration prefixed by
"Local", i.e. as a global declaration which shall not be available without
qualification when imported. [local-declaration,vernacular,default]
File "./GRP661-1/SMT.v", line 13, characters 0-18:
Warning: Interpreting this declaration as if a global declaration prefixed by
"Local", i.e. as a global declaration which shall not be available without
qualification when imported. [local-declaration,vernacular,default]
veriT --proof-prune --proof-merge --proof-with-sharing --cnf-definitional --disable-ackermann --input=smtlib2 --proof=/tmp/verit_coq995f14.vtlog /tmp/verit_coq995f14.smt2 2> /tmp/warnings_verit0dd373.log
veriT dev - the SMT-solver veriT (UFRN/LORIA).
success
success
success
success
success
success
success
success
success
success
success
success
success
success
success
success
success
success
success
unknown
success
success
Verit = 0.00008
(set-option :print-success true)
(set-option :produce-assignments true)
(set-option :produce-proofs true)
(set-logic QF_UFLIA)
(declare-fun op_3 () Int)
(declare-fun op_2 (Int Int ) Int)
(declare-fun op_1 () Int)
(declare-fun op_4 () Int)
(declare-fun op_0 () Int)
(assert (not (= (op_2 (op_2 op_0 op_1) (op_2 op_3 op_4)) (op_2 (op_2 (op_2 op_0 op_1) op_3) op_4))))
(check-sat)
(get-model)
File "./GRP661-1/SMT.v", line 29, characters 2-5:
Error:
CVC4 returned sat. Here is the model:

op_d := 2
op_c := 1
mult := fun BOUND_VARIABLE_327 BOUND_VARIABLE_328 => if BOUND_VARIABLE_327 = -2 then if BOUND_VARIABLE_328 = 3 then -3 else if BOUND_VARIABLE_328 = 0 then 4 else -4 else if BOUND_VARIABLE_327 = 2 then if BOUND_VARIABLE_328 = 1 then -2 else -4 else if BOUND_VARIABLE_327 = 0 then if BOUND_VARIABLE_328 = -1 then 3 else -4 else -4
a := 0
b := -1

